c Generated map
c Size: 8 * 8, weights in range: 1 to 10, walls: True, with ratio 0.05
c dim 1 of 8
c
p sp 64 102
c graph contains 64 nodes and 102 arcs
c
a 1 9 8
a 9 1 8
a 1 2 2
a 2 1 2
a 2 10 9
a 10 2 9
a 4 12 5
a 12 4 5
a 4 5 3
a 5 4 3
a 5 13 1
a 13 5 1
a 5 6 9
a 6 5 9
a 6 14 4
a 14 6 4
a 6 7 6
a 7 6 6
a 7 15 10
a 15 7 10
a 7 8 7
a 8 7 7
a 8 16 3
a 16 8 3
a 9 17 1
a 17 9 1
a 9 10 4
a 10 9 4
a 10 18 1
a 18 10 1
a 10 11 8
a 11 10 8
a 11 19 7
a 19 11 7
a 11 12 7
a 12 11 7
a 12 20 3
a 20 12 3
a 12 13 5
a 13 12 5
a 13 21 10
a 21 13 10
a 13 14 7
a 14 13 7
a 14 22 1
a 22 14 1
a 14 15 1
a 15 14 1
a 15 23 10
a 23 15 10
a 15 16 6
a 16 15 6
a 16 24 4
a 24 16 4
a 17 18 2
a 18 17 2
a 18 26 10
a 26 18 10
a 18 19 10
a 19 18 10
a 19 27 10
a 27 19 10
a 19 20 9
a 20 19 9
a 20 28 4
a 28 20 4
a 20 21 2
a 21 20 2
a 21 29 3
a 29 21 3
a 21 22 8
a 22 21 8
a 22 30 1
a 30 22 1
a 22 23 4
a 23 22 4
a 23 24 3
a 24 23 3
a 24 32 3
a 32 24 3
a 26 34 4
a 34 26 4
a 26 27 9
a 27 26 9
a 27 35 1
a 35 27 1
a 27 28 5
a 28 27 5
a 28 36 3
a 36 28 3
a 28 29 10
a 29 28 10
a 29 37 4
a 37 29 4
a 29 30 7
a 30 29 7
a 30 38 1
a 38 30 1
a 32 40 6
a 40 32 6
a 33 41 8
a 41 33 8
a 33 34 7
a 34 33 7
a 34 42 10
a 42 34 10
a 34 35 9
a 35 34 9
a 35 43 6
a 43 35 6
a 35 36 5
a 36 35 5
a 36 44 6
a 44 36 6
a 36 37 5
a 37 36 5
a 37 45 1
a 45 37 1
a 37 38 8
a 38 37 8
a 38 46 1
a 46 38 1
a 38 39 8
a 39 38 8
a 39 47 2
a 47 39 2
a 39 40 7
a 40 39 7
a 40 48 2
a 48 40 2
a 41 49 4
a 49 41 4
a 41 42 7
a 42 41 7
a 42 50 3
a 50 42 3
a 42 43 7
a 43 42 7
a 43 51 9
a 51 43 9
a 43 44 4
a 44 43 4
a 44 52 8
a 52 44 8
a 44 45 8
a 45 44 8
a 45 53 9
a 53 45 9
a 45 46 4
a 46 45 4
a 46 54 8
a 54 46 8
a 46 47 3
a 47 46 3
a 47 55 5
a 55 47 5
a 47 48 8
a 48 47 8
a 48 56 7
a 56 48 7
a 49 57 4
a 57 49 4
a 49 50 8
a 50 49 8
a 50 58 9
a 58 50 9
a 50 51 2
a 51 50 2
a 51 59 1
a 59 51 1
a 51 52 2
a 52 51 2
a 52 60 5
a 60 52 5
a 52 53 6
a 53 52 6
a 53 61 7
a 61 53 7
a 53 54 1
a 54 53 1
a 54 62 2
a 62 54 2
a 54 55 6
a 55 54 6
a 55 63 6
a 63 55 6
a 55 56 3
a 56 55 3
a 56 64 4
a 64 56 4
a 57 58 3
a 58 57 3
a 58 59 8
a 59 58 8
a 59 60 10
a 60 59 10
a 60 61 3
a 61 60 3
a 61 62 1
a 62 61 1
a 62 63 4
a 63 62 4
a 63 64 8
a 64 63 8
